N = 9;
H = 5;
T = 2;

avail = array3d(1..N, 1..H, 1..T, [7, 6, 8, 8, 3, 2, 2, 4, 4, 0, 3, 6, 7, 5, 3, 7, 3, 3, 3, 9, 4, 5, 6, 7, 8, 4, 3, 6, 10, 2, 4, 8, 6, 10, 3, 2, 10, 2, 0, 6, 2, 9, 7, 1, 8, 6, 6, 6, 8, 8, 7, 3, 6, 4, 8, 3, 1, 10, 4, 8, 10, 9, 1, 2, 9, 5, 1, 3, 3, 5, 2, 9, 9, 10, 10, 6, 5, 7, 3, 9, 10, 0, 8, 8, 3, 8, 8, 2, 7, 3]);

r = array2d(1..H, 1..T, [3, 4, 4, 2, 0, 1, 3, 0, 3, 2]);
